NAME: berlin52
TYPE: TOUR
DIMENSION: 52
TOUR_SECTION
1
22
31
21
42
7
2
18
3
17
32
45
19
41
8
10
9
39
40
37
38
24
5
6
4
25
12
51
11
28
27
13
52
14
26
47
15
43
33
48
46
35
34
44
16
50
29
20
23
30
36
49
EOF
